experiments/sat_smt/run/sat-r/results/zoe_2_richard_2.res
solved=true
solvingTime=3479.9375
nActions=26