experiments/sat_smt/run/sat-r/results/zoe_2_richard_2.out
Timesteps: 1
s UNSATISFIABLE
real 0.17
user 0.02
sys 0.00
Timesteps: 2
s UNSATISFIABLE
real 0.20
user 0.04
sys 0.01
Timesteps: 3
s UNSATISFIABLE
real 0.31
user 0.10
sys 0.00
Timesteps: 4
s UNSATISFIABLE
real 0.32
user 0.17
sys 0.01
Timesteps: 5
s UNSATISFIABLE
real 0.64
user 0.47
sys 0.01
Timesteps: 6
s UNSATISFIABLE
real 1.21
user 0.97
sys 0.02
Timesteps: 7
s UNSATISFIABLE
real 2.36
user 2.12
sys 0.02
Timesteps: 8
s UNSATISFIABLE
real 3.26
user 2.97
sys 0.03
Timesteps: 9
s UNSATISFIABLE
real 11.70
user 10.91
sys 0.04
Timesteps: 10
s UNSATISFIABLE
real 13.84
user 12.95
sys 0.04
Timesteps: 11
s UNSATISFIABLE
real 25.66
user 24.62
sys 0.06
Timesteps: 12
s UNSATISFIABLE
real 22.50
user 21.38
sys 0.08
Timesteps: 13
s UNSATISFIABLE
real 25.03
user 23.83
sys 0.09
Timesteps: 14
s UNSATISFIABLE
real 33.48
user 32.15
sys 0.09
Timesteps: 15
s UNSATISFIABLE
real 32.81
user 31.38
sys 0.08
Timesteps: 16
s UNSATISFIABLE
real 28.10
user 26.65
sys 0.10
Timesteps: 17
s UNSATISFIABLE
real 42.02
user 40.39
sys 0.11
Timesteps: 18
s UNSATISFIABLE
real 45.49
user 43.77
sys 0.12
Timesteps: 19
s UNSATISFIABLE
real 51.60
user 49.94
sys 0.14
Timesteps: 20
s UNSATISFIABLE
real 92.41
user 90.96
sys 0.16
Timesteps: 21
s UNSATISFIABLE
real 230.05
user 228.28
sys 0.23
Timesteps: 22
s UNSATISFIABLE
real 339.85
user 337.59
sys 0.35
Timesteps: 23
s UNSATISFIABLE
real 497.23
user 494.23
sys 0.43
Timesteps: 24
s UNSATISFIABLE
real 855.61
user 851.26
sys 0.59
Timesteps: 25
s UNSATISFIABLE
real 1052.52
user 1047.42
sys 0.72
Timesteps: 26
s SATISFIABLE
real 91.45
user 90.17
sys 0.20
